
  17    4
  10   10   10   10

   0   0   0   0   0   2 2 7 
   7  10  10  10  10   4 9 6 5 3 
   7  10  10  10  10   3 16 11 4 
   3  10  10  10  10   3 14 13 8 
   2  10  10  10  10   4 16 14 12 10 
   5  10  10  10  10   3 16 11 10 
   2  10  10  10  10   3 13 11 10 
   7  10  10  10  10   2 12 10 
   8  10  10  10  10   2 16 11 
   9  10  10  10  10   1 15 
   1  10  10  10  10   1 15 
   8  10  10  10  10   1 15 
   8  10  10  10  10   1 15 
   6  10  10  10  10   1 15 
   6  10  10  10  10   1 17
   1  10  10  10  10   1 17
   0   0   0   0   0   0 
